.Version 6.0.2  of ABINIT

 ABINIT is a project of the Universite Catholique de Louvain,
 Corning Inc. and other collaborators, see ~abinit/doc/developers/contributors.txt .
 Please read ~abinit/doc/users/acknowledgments.html for suggested
 acknowledgments of the ABINIT effort.

.Starting date : Sat  3 Apr 2010.

- input  file    -> PT.in
- output file    -> PT.OUT
- root for input  files -> PTi
- root for output files -> PTo

 DATASET    1 : space group Fd -3 m (#227); Bravais cF (face-center cubic)
   intxc =         0  ionmov =         0    iscf =         5 xclevel =         0
  lmnmax =         3   lnmax =         3   mband =         5  mffmem =         1
P  mgfft =        20   mkmem =         1 mpssoang=         3     mpw =       295
  mqgrid =      3001   natom =         2    nfft =      8000    nkpt =        10
  nloalg =         4  nspden =         1 nspinor =         1  nsppol =         1
    nsym =        24  n1xccc =         0  ntypat =         1  occopt =         1
  Rough estimation (10% accuracy) of disk space for files :

 DATASET    2 : space group Fd -3 m (#227); Bravais cF (face-center cubic)
   intxc =         0  ionmov =         0    iscf =        -2 xclevel =         0
  lmnmax =         3   lnmax =         3   mband =         9  mffmem =         1
P  mgfft =        20   mkmem =         1 mpssoang=         3     mpw =       302
  mqgrid =      3001   natom =         2    nfft =      8000    nkpt =         3
  nloalg =         4  nspden =         1 nspinor =         1  nsppol =         1
    nsym =        24  n1xccc =         0  ntypat =         1  occopt =         1
  Rough estimation (10% accuracy) of disk space for files :

 -outvars: echo values of preprocessed input variables --------
            acell    1.0217000000E+01  1.0217000000E+01  1.0217000000E+01 Bohr
              amu    2.80855000E+01
           diemac    1.20000000E+01
             ecut    8.00000000E+00 Hartree
           getden1        0
           getden2       -1
             iscf1        5
             iscf2       -2
           istwfk2     1    1    1
              ixc         0
           jdtset      1    2
              kpt1  -1.25000000E-01 -2.50000000E-01  0.00000000E+00
                    -1.25000000E-01  5.00000000E-01  0.00000000E+00
                    -2.50000000E-01 -3.75000000E-01  0.00000000E+00
                    -1.25000000E-01 -3.75000000E-01  1.25000000E-01
                    -1.25000000E-01  2.50000000E-01  0.00000000E+00
                    -2.50000000E-01  3.75000000E-01  0.00000000E+00
                    -3.75000000E-01  5.00000000E-01  0.00000000E+00
                    -2.50000000E-01  5.00000000E-01  1.25000000E-01
                    -1.25000000E-01  0.00000000E+00  0.00000000E+00
                    -3.75000000E-01  0.00000000E+00  0.00000000E+00
              kpt2   0.00000000E+00  0.00000000E+00  0.00000000E+00
                     5.00000000E-01  0.00000000E+00  0.00000000E+00
                     5.00000000E-01  5.00000000E-01  0.00000000E+00
          kptrlen1   4.08680000E+01
          kptrlen2   1.44490200E+01
         kptrlatt1   4 -4  4  -4  4  4  -4 -4  4
         kptrlatt2   2  0  0   0  2  0   0  0  2
P           mkmem         1
            natom         2
            nband1     5
            nband2     9
           nbdbuf1        0
           nbdbuf2        2
           ndtset         2
            ngfft        20      20      20
             nkpt1       10
             nkpt2        3
            nstep        10
             nsym        24
           ntypat         1
              occ    2.000000  2.000000  2.000000  2.000000  0.000000
            rprim    0.0000000000E+00  5.0000000000E-01  5.0000000000E-01
                     5.0000000000E-01  0.0000000000E+00  5.0000000000E-01
                     5.0000000000E-01  5.0000000000E-01  0.0000000000E+00
           shiftk1   5.00000000E-01  5.00000000E-01  5.00000000E-01
           shiftk2   0.00000000E+00  0.00000000E+00  0.00000000E+00
          spgroup       227
        symmorphi         0
           symrel    1  0  0   0  1  0   0  0  1       0 -1  1   0 -1  0   1 -1  0
                    -1  0  0  -1  0  1  -1  1  0       0  1 -1   1  0 -1   0  0 -1
                    -1  0  0  -1  1  0  -1  0  1       0 -1  1   1 -1  0   0 -1  0
                     1  0  0   0  0  1   0  1  0       0  1 -1   0  0 -1   1  0 -1
                    -1  0  1  -1  1  0  -1  0  0       0 -1  0   1 -1  0   0 -1  1
                     1  0 -1   0  0 -1   0  1 -1       0  1  0   0  0  1   1  0  0
                     1  0 -1   0  1 -1   0  0 -1       0 -1  0   0 -1  1   1 -1  0
                    -1  0  1  -1  0  0  -1  1  0       0  1  0   1  0  0   0  0  1
                     0  0 -1   0  1 -1   1  0 -1       1 -1  0   0 -1  1   0 -1  0
                     0  0  1   1  0  0   0  1  0      -1  1  0  -1  0  0  -1  0  1
                     0  0  1   0  1  0   1  0  0       1 -1  0   0 -1  0   0 -1  1
                     0  0 -1   1  0 -1   0  1 -1      -1  1  0  -1  0  1  -1  0  0
           toldfe1   1.00000000E-06 Hartree
           toldfe2   0.00000000E+00 Hartree
           tolwfr1   0.00000000E+00
           tolwfr2   1.00000000E-10
            typat    1  1
              wtk1     0.09375    0.09375    0.09375    0.18750    0.09375    0.09375
                       0.09375    0.18750    0.03125    0.03125
              wtk2     0.12500    0.50000    0.37500
           xangst    0.0000000000E+00  0.0000000000E+00  0.0000000000E+00
                     1.3516508850E+00  1.3516508850E+00  1.3516508850E+00
            xcart    0.0000000000E+00  0.0000000000E+00  0.0000000000E+00
                     2.5542500000E+00  2.5542500000E+00  2.5542500000E+00
             xred    0.0000000000E+00  0.0000000000E+00  0.0000000000E+00
                     2.5000000000E-01  2.5000000000E-01  2.5000000000E-01
            znucl     14.00000

 chkinp: Checking input parameters for consistency, jdtset= 1.

 chkinp: Checking input parameters for consistency, jdtset= 2.

== DATASET  1 ==================================================================

 Exchange-correlation functional for the present dataset will be:
  No xc applied (usually for testing) - ixc=0

 Real(R)+Recip(G) space primitive vectors, cartesian coordinates (Bohr,Bohr^-1):
 R(1)=  0.0000000  5.1085000  5.1085000  G(1)= -0.0978761  0.0978761  0.0978761
 R(2)=  5.1085000  0.0000000  5.1085000  G(2)=  0.0978761 -0.0978761  0.0978761
 R(3)=  5.1085000  5.1085000  0.0000000  G(3)=  0.0978761  0.0978761 -0.0978761
 Unit cell volume ucvol=  2.6663072E+02 bohr^3
 Angles (23,13,12)=  6.00000000E+01  6.00000000E+01  6.00000000E+01 degrees

 getcut: wavevector=  0.0000  0.0000  0.0000  ngfft=  20  20  20
         ecut(hartree)=      8.000   => boxcut(ratio)=   2.17426

--- Pseudopotential description ------------------------------------------------
- pspini: atom type   1  psp file is /home/jordan/alsaidi/Research/psp/si.fhi
- pspatm: opening atomic psp file    /home/jordan/alsaidi/Research/psp/si.fhi
 OPIUM generated Si potential
  14.00000   4.00000     70708                znucl, zion, pspdat
    6    0    2    0      1144   0.00000      pspcod,pspxc,lmax,lloc,mmax,r2well
    0.00000000000000    0.00000000000000    0.00000000000000   rchrg,fchrg,qchrg
  1.013085          amesh (Hamman grid)
 pspatm: epsatm=   35.78691426
         --- l  ekb(1:nproj) -->
             1   -9.559886
             2   -5.160793
 pspatm: atomic psp has been read  and splines computed

   5.72590628E+02                                ecore*ucvol(ha*bohr**3)

P newkpt: treating      5 bands with npw=     295 for ikpt=   1 by node    0
P newkpt: treating      5 bands with npw=     283 for ikpt=   2 by node    1
P newkpt: treating      5 bands with npw=     292 for ikpt=   3 by node    2
P newkpt: treating      5 bands with npw=     289 for ikpt=   4 by node    3
P newkpt: treating      5 bands with npw=     292 for ikpt=   5 by node    4
P newkpt: treating      5 bands with npw=     286 for ikpt=   6 by node    5
P newkpt: treating      5 bands with npw=     291 for ikpt=   7 by node    6
P newkpt: treating      5 bands with npw=     286 for ikpt=   8 by node    7
P newkpt: treating      5 bands with npw=     295 for ikpt=   9 by node    8
P newkpt: treating      5 bands with npw=     287 for ikpt=  10 by node    9

 setup2: Arith. and geom. avg. npw (full set) are     289.031     289.009

     iter   Etot(hartree)      deltaE(h)  residm     vres2    diffor    maxfor
 ETOT  1  -5.4491337563935    -5.449E+00 9.493E-02 8.975E+00 0.000E+00 0.000E+00
 ETOT  2  -5.4568744884128    -7.741E-03 6.172E-03 1.874E-01 0.000E+00 0.000E+00
 ETOT  3  -5.4569739011868    -9.941E-05 8.002E-04 1.794E-03 0.000E+00 0.000E+00
 ETOT  4  -5.4569749890310    -1.088E-06 5.064E-04 3.489E-05 0.000E+00 0.000E+00
 ETOT  5  -5.4569750174799    -2.845E-08 7.480E-05 1.518E-05 0.000E+00 0.000E+00
 ETOT  6  -5.4569750217434    -4.263E-09 3.391E-05 5.347E-07 0.000E+00 0.000E+00

 At SCF step    6, etot is converged :
  for the second time, diff in etot=  4.263E-09 < toldfe=  1.000E-06

 Cartesian components of stress tensor (hartree/bohr^3)
  sigma(1 1)= -2.15321615E-03  sigma(3 2)=  0.00000000E+00
  sigma(2 2)= -2.15321615E-03  sigma(3 1)=  0.00000000E+00
  sigma(3 3)= -2.15321615E-03  sigma(2 1)=  0.00000000E+00

 ----iterations are completed or convergence reached----

 Mean square residual over all n,k,spin=   7.5857E-07; max=  3.3905E-05
  -0.1250 -0.2500  0.0000    1  2.31395E-10 kpt; spin; max resid(k); each band:
 3.61E-11 1.58E-11 5.09E-12 1.70E-11 2.31E-10
  -0.1250  0.5000  0.0000    1  2.11083E-08 kpt; spin; max resid(k); each band:
 1.64E-11 2.84E-11 1.65E-11 3.10E-12 2.11E-08
  -0.2500 -0.3750  0.0000    1  1.38636E-09 kpt; spin; max resid(k); each band:
 3.52E-11 1.29E-11 1.29E-11 2.19E-12 1.39E-09
  -0.1250 -0.3750  0.1250    1  5.38475E-07 kpt; spin; max resid(k); each band:
 2.64E-11 1.78E-11 1.99E-11 1.04E-11 5.38E-07
  -0.1250  0.2500  0.0000    1  3.39053E-05 kpt; spin; max resid(k); each band:
 2.38E-11 2.79E-11 1.68E-11 1.11E-11 3.39E-05
  -0.2500  0.3750  0.0000    1  3.24491E-11 kpt; spin; max resid(k); each band:
 1.03E-11 3.24E-11 1.79E-11 2.11E-12 3.08E-11
  -0.3750  0.5000  0.0000    1  4.30069E-11 kpt; spin; max resid(k); each band:
 2.48E-11 1.46E-11 6.41E-12 1.73E-12 4.30E-11
  -0.2500  0.5000  0.1250    1  1.89088E-09 kpt; spin; max resid(k); each band:
 1.48E-11 1.84E-11 7.57E-12 1.54E-11 1.89E-09
  -0.1250  0.0000  0.0000    1  3.45220E-06 kpt; spin; max resid(k); each band:
 2.85E-11 1.38E-11 3.65E-11 5.93E-11 3.45E-06
  -0.3750  0.0000  0.0000    1  7.19712E-09 kpt; spin; max resid(k); each band:
 3.33E-11 3.81E-11 7.15E-12 1.01E-11 7.20E-09
 reduced coordinates (array xred) for    2 atoms
       0.000000000000      0.000000000000      0.000000000000
       0.250000000000      0.250000000000      0.250000000000
 rms dE/dt=  0.0000E+00; max dE/dt=  0.0000E+00; dE/dt below (all hartree)
    1       0.000000000000      0.000000000000      0.000000000000
    2       0.000000000000      0.000000000000      0.000000000000

 cartesian coordinates (angstrom) at end:
[...]
  3.40E-11  1.40E-11  1.51E-11  9.21E-12  5.42E-11  1.25E-11  5.27E-11  7.74E-11
  4.27E-07
 -1.1317E-01  3.5585E-01  3.5585E-01  3.5585E-01  4.2379E-01  4.2379E-01
  4.2379E-01  4.7758E-01  5.6782E-01
  prteigrs : nnsclo,ikpt=   10    1 max resid (incl. the buffer)=  4.27120E-07
 Non-SCF case, kpt    2 (  0.50000  0.00000  0.00000), residuals and eigenvalues=
  1.33E-11  1.13E-11  7.08E-12  4.19E-11  8.82E-12  3.67E-11  9.25E-11  1.43E-09
  4.82E-04
 -1.5319E-02  6.5895E-02  3.0507E-01  3.0507E-01  3.8976E-01  4.4213E-01
  4.4213E-01  5.5524E-01  7.3560E-01
  prteigrs : nnsclo,ikpt=   10    2 max resid (incl. the buffer)=  4.81769E-04
 Non-SCF case, kpt    3 (  0.50000  0.50000  0.00000), residuals and eigenvalues=
  2.65E-11  7.86E-11  1.59E-11  5.73E-11  2.01E-11  4.89E-11  4.48E-11  2.85E-08
  6.79E-11
  5.1218E-02  5.1219E-02  2.3108E-01  2.3108E-01  3.2635E-01  3.2635E-01
  7.2001E-01  7.2001E-01  7.5194E-01
  prteigrs : nnsclo,ikpt=   10    3 max resid (incl. the buffer)=  2.84810E-08

 Calculating and writing out Kohn-Sham electronic Structure file
 Using diagonalized wavefunctions and energies (kssform=1)
 number of Gamma centered plane waves    411
 number of Gamma centered shells     37
 number of bands    272
 maximum angular momentum components      3
 Diagonalized eigenvalues
   k    eigenvalues [Hartree]
   1     -0.1132  0.3558  0.3558  0.3558  0.4238  0.4238  0.4238  0.4776  0.5678
          0.6197  0.6197  0.7045  0.7045  0.7045  0.8177  1.2058  1.2058  1.2058
          1.2613  1.2613  1.2902  1.2902  1.2902  1.4260  1.4260  1.4260  1.6563
          1.6563  1.6563  1.7015  1.7778  1.7778  1.8203  1.8203  1.8537  1.8537
          1.8537  1.9576  1.9576  1.9576  1.9846  1.9846  1.9846  2.0029  2.0029
          2.0029  2.0286  2.0286  2.0286  2.0578  2.1680  2.1846  2.1846  2.1846
          2.2002  2.2002  2.2002  2.3939  2.5031  2.7730  2.7730  2.9093  2.9093
          2.9093  3.0267  3.0562  3.0562  3.0562  3.0796  3.0796  3.0811  3.0811
          3.0811  3.3570  3.3570  3.3570  3.3645  3.3645  3.3645  3.4053  3.4053
          3.4053  3.4163  3.4163  3.4778  3.4778  3.4778  3.5515  3.5515  3.5894
          3.6253  3.6253  3.6253  3.6756  3.6756  3.6756  3.6947  3.6947  3.6947
          3.7091  3.7091  3.7091  3.7100  3.7100  3.7100  3.7544  3.7635  3.7635
          3.7658  3.7658  3.7658  3.8177  4.0952  4.0952  4.0952  4.1939  4.1939
          4.2151  4.2151  4.2151  4.3017  4.4138  4.4138  4.4138  4.4158  4.4158
          4.4158  4.4276  4.4276  4.4276  4.4364  4.4364  4.4364  4.4378  4.4378
          4.5254  4.8118  4.8118  4.8138  4.8498  4.8498  4.8796  4.8796  4.8796
          4.8928  4.8928  4.8928  4.9389  4.9389  4.9389  4.9875  4.9904  4.9904
          4.9904  4.9930  5.0114  5.0114  5.0114  5.0253  5.0253  5.0253  5.0258
          5.0258  5.0258  5.0311  5.0311  5.0311  5.5082  5.6089  5.7184  5.7184
          5.7184  5.7629  5.7629  5.7629  5.7665  5.7665  5.9042  5.9042  5.9042
          6.0840  6.0840  6.0840  6.1657  6.1657  6.1657  6.2291  6.2291  6.2886
          6.3394  6.3394  6.3995  6.3995  6.3995  6.4199  6.4199  6.4199  6.4583
          6.4583  6.4583  6.4728  6.4728  6.4728  6.4995  6.4995  6.4995  6.5066
          6.5066  6.5113  6.5113  6.5162  6.5162  6.5162  6.5165  6.5165  6.5165
          6.5335  6.5335  6.5335  6.5389  6.5549  6.5549  6.5549  6.5596  6.5596
          6.5596  6.5611  6.6487  6.6487  6.6487  6.6640  6.6640  6.6661  6.6661
          6.6661  6.6736  6.6882  6.6952  6.7061  6.7061  6.7061  6.7455  6.7455
          6.7603  6.7603  6.7603  6.7603  6.7603  6.7603  6.7652  6.7652  6.7652
          6.7698  6.7698  6.7789  6.7789  6.7789  7.1727  7.2544  7.2544  7.3553
          7.3553  7.3553  7.4244  7.4244  7.4244  7.4583  7.4583  7.4583  7.4718
          7.4718  7.4718
   2     -0.0153  0.0659  0.3051  0.3051  0.3898  0.4421  0.4421  0.5552  0.7301
          0.7301  0.7416  0.7514  0.7514  0.8237  1.0519  1.0646  1.1169  1.1169
          1.1508  1.1508  1.2445  1.3121  1.3229  1.3229  1.3708  1.3708  1.5058
          1.5058  1.5098  1.5441  1.5441  1.6034  1.6512  1.6636  1.8259  1.8259
          1.8980  1.8980  1.9206  1.9710  2.1259  2.1259  2.1311  2.1311  2.1659
          2.2425  2.2690  2.2690  2.3022  2.3022  2.3147  2.4078  2.4078  2.5232
          2.5345  2.5345  2.5462  2.5462  2.5859  2.6407  2.6407  2.7081  2.7193
          2.7208  2.7467  2.7467  2.7874  2.7874  2.7961  2.8540  2.8889  2.9715
          3.0057  3.0057  3.0485  3.0485  3.1191  3.1191  3.2089  3.2089  3.3183
          3.3338  3.3804  3.3804  3.4373  3.4373  3.4413  3.5171  3.5212  3.5805
          3.5805  3.6604  3.6604  3.6736  3.6736  3.7208  3.7408  3.7525  3.7804
          3.7804  3.7988  3.8108  3.8108  3.8192  3.8192  3.8265  3.8891  4.0513
          4.0513  4.1095  4.1095  4.1234  4.1753  4.1753  4.2081  4.2217  4.2217
          4.2228  4.2336  4.2436  4.3329  4.3329  4.3628  4.4043  4.4043  4.4117
          4.4117  4.4516  4.4516  4.4636  4.4857  4.5736  4.5950  4.6029  4.6029
          4.6098  4.6098  4.6391  4.7154  4.7154  4.8163  4.8163  4.9120  4.9264
          4.9264  4.9353  4.9353  4.9734  4.9950  4.9950  5.0583  5.0583  5.0656
          5.0656  5.0728  5.0913  5.1395  5.1395  5.1637  5.1637  5.2675  5.2675
          5.3198  5.3198  5.3235  5.3321  5.4400  5.5820  5.6122  5.6122  5.6472
          5.6472  5.6499  5.6499  5.6896  5.6930  5.6930  5.7130  5.7300  5.7459
          5.7937  5.7937  5.8473  5.8473  5.8890  5.9502  5.9502  5.9525  5.9819
          6.0242  6.0355  6.0355  6.0453  6.0674  6.0674  6.0708  6.0708  6.0825
          6.0825  6.1007  6.1007  6.1048  6.1099  6.1099  6.1157  6.1178  6.1178
          6.1451  6.2550  6.3227  6.3227  6.3379  6.3379  6.3992  6.4216  6.4424
          6.4424  6.4488  6.4666  6.4666  6.4767  6.4767  6.4813  6.4842  6.4842
          6.4864  6.7107  6.7780  6.7780  6.7901  6.7901  6.8066  6.8131  6.8583
          6.8734  6.8734  6.8754  6.8754  6.8771  6.8953  6.9339  7.0108  7.0108
          7.0466  7.0466  7.0858  7.0858  7.1264  7.1322  7.1517  7.1517  7.1922
          7.2452  7.2579  7.2579  7.2717  7.2717  7.2824  7.3102  7.3102  7.3127
[...]
          4.8388  4.8388  4.8588  4.8588  5.0692  5.0692  5.1138  5.1138  5.1247
          5.1247  5.1820  5.1820  5.2502  5.2502  5.2778  5.2778  5.3406  5.3406
          5.3464  5.3464  5.3485  5.3485  5.3762  5.3762  5.3819  5.3819  5.4434
          5.4434  5.4748  5.4748  5.5237  5.5237  5.5370  5.5370  5.5449  5.5449
          5.5738  5.5738  5.5874  5.5874  5.5941  5.5941  5.5969  5.5969  5.8341
          5.8341  5.8664  5.8664  5.9381  5.9381  5.9754  5.9754  6.0321  6.0321
          6.0340  6.0340  6.0842  6.0842  6.1028  6.1028  6.2775  6.2775  6.2880
          6.2880  6.3048  6.3048  6.3050  6.3050  6.3368  6.3368  6.3429  6.3429
          6.3604  6.3604  6.3771  6.3771  6.6698  6.6698  6.7955  6.7955  6.8306
          6.8306  6.8637  6.8637  6.8998  6.8998  6.9340  6.9340  6.9548  6.9548
          6.9777  6.9777  6.9787  6.9787  7.0457  7.0457  7.0736  7.0736  7.0748
          7.0748  7.0831  7.0831  7.0877  7.0877  7.0955  7.0955  7.1103  7.1103
          7.3942  7.3942  7.4899  7.4899  7.4959  7.4959  7.5432  7.5432  7.5532
          7.5532  7.5929  7.5929  7.6086  7.6086  7.6167  7.6167  7.6223  7.6223
          7.6409  7.6409
 Test on the normalization of the wavefunctions
  min sum_G |a(n,k,G)| =  1.000000
  max sum_G |a(n,k,G)| =  1.000000
 Test on the orthogonalization of the wavefunctions
  min sum_G a(n,k,G)* a(n',k,G) =  0.000000
  max sum_G a(n,k,G)* a(n',k,G) =  0.000000

 ----iterations are completed or convergence reached----

 Mean square residual over all n,k,spin=   1.7860E-05; max=  4.8177E-04
   0.0000  0.0000  0.0000    1  4.27120E-07 kpt; spin; max resid(k); each band:
 3.40E-11 1.40E-11 1.51E-11 9.21E-12 5.42E-11 1.25E-11 5.27E-11 7.74E-11
 4.27E-07
   0.5000  0.0000  0.0000    1  4.81769E-04 kpt; spin; max resid(k); each band:
 1.33E-11 1.13E-11 7.08E-12 4.19E-11 8.82E-12 3.67E-11 9.25E-11 1.43E-09
 4.82E-04
   0.5000  0.5000  0.0000    1  2.84810E-08 kpt; spin; max resid(k); each band:
 2.65E-11 7.86E-11 1.59E-11 5.73E-11 2.01E-11 4.89E-11 4.48E-11 2.85E-08
 6.79E-11
 reduced coordinates (array xred) for    2 atoms
       0.000000000000      0.000000000000      0.000000000000
       0.250000000000      0.250000000000      0.250000000000

 cartesian coordinates (angstrom) at end:
    1      0.00000000000000     0.00000000000000     0.00000000000000
    2      1.35165088504101     1.35165088504101     1.35165088504101
 length scales= 10.217000000000 10.217000000000 10.217000000000 bohr
              =  5.406603540164  5.406603540164  5.406603540164 angstroms
 prteigrs : about to open file PTo_DS2_EIG
 Eigenvalues (hartree) for nkpt=   3  k points:
 kpt#   1, nband=  9, wtk=  0.12500, kpt=  0.0000  0.0000  0.0000 (reduced coord)
  -0.11317   0.35585   0.35585   0.35585   0.42379   0.42379   0.42379   0.47758
   0.56782
 kpt#   2, nband=  9, wtk=  0.50000, kpt=  0.5000  0.0000  0.0000 (reduced coord)
  -0.01532   0.06589   0.30507   0.30507   0.38976   0.44213   0.44213   0.55524
   0.73560
 kpt#   3, nband=  9, wtk=  0.37500, kpt=  0.5000  0.5000  0.0000 (reduced coord)
   0.05122   0.05122   0.23108   0.23108   0.32635   0.32635   0.72001   0.72001
   0.75194
 Total charge density [el/Bohr^3]
,     Maximum=    7.4499E-02  at reduced coord.    0.1500    0.1500    0.5500
,Next maximum=    7.4499E-02  at reduced coord.    0.1500    0.5500    0.1500
,     Minimum=    2.9509E-04  at reduced coord.    0.0000    0.0000    0.0000
,Next minimum=    2.9510E-04  at reduced coord.    0.2500    0.2500    0.2500

== END DATASET(S) ==============================================================

 -outvars: echo values of variables after computation  --------
            acell    1.0217000000E+01  1.0217000000E+01  1.0217000000E+01 Bohr
              amu    2.80855000E+01
           diemac    1.20000000E+01
             ecut    8.00000000E+00 Hartree
           etotal1  -5.4569750217E+00
            fcart1   0.0000000000E+00  0.0000000000E+00  0.0000000000E+00
                     0.0000000000E+00  0.0000000000E+00  0.0000000000E+00
           getden1        0
           getden2       -1
             iscf1        5
             iscf2       -2
           istwfk2     1    1    1
              ixc         0
           jdtset      1    2
              kpt1  -1.25000000E-01 -2.50000000E-01  0.00000000E+00
                    -1.25000000E-01  5.00000000E-01  0.00000000E+00
                    -2.50000000E-01 -3.75000000E-01  0.00000000E+00
                    -1.25000000E-01 -3.75000000E-01  1.25000000E-01
                    -1.25000000E-01  2.50000000E-01  0.00000000E+00
                    -2.50000000E-01  3.75000000E-01  0.00000000E+00
                    -3.75000000E-01  5.00000000E-01  0.00000000E+00
                    -2.50000000E-01  5.00000000E-01  1.25000000E-01
                    -1.25000000E-01  0.00000000E+00  0.00000000E+00
                    -3.75000000E-01  0.00000000E+00  0.00000000E+00
              kpt2   0.00000000E+00  0.00000000E+00  0.00000000E+00
                     5.00000000E-01  0.00000000E+00  0.00000000E+00
                     5.00000000E-01  5.00000000E-01  0.00000000E+00
          kptrlen1   4.08680000E+01
          kptrlen2   1.44490200E+01
         kptrlatt1   4 -4  4  -4  4  4  -4 -4  4
         kptrlatt2   2  0  0   0  2  0   0  0  2
P           mkmem         1
            natom         2
            nband1     5
            nband2     9
           nbdbuf1        0
           nbdbuf2        2
           ndtset         2
            ngfft        20      20      20
             nkpt1       10
             nkpt2        3
            nstep        10
             nsym        24
           ntypat         1
              occ    2.000000  2.000000  2.000000  2.000000  0.000000
            rprim    0.0000000000E+00  5.0000000000E-01  5.0000000000E-01
                     5.0000000000E-01  0.0000000000E+00  5.0000000000E-01
                     5.0000000000E-01  5.0000000000E-01  0.0000000000E+00
           shiftk1   5.00000000E-01  5.00000000E-01  5.00000000E-01
           shiftk2   0.00000000E+00  0.00000000E+00  0.00000000E+00
          spgroup       227
           strten1  -2.1532161525E-03 -2.1532161525E-03 -2.1532161525E-03
                     0.0000000000E+00  0.0000000000E+00  0.0000000000E+00
        symmorphi         0
           symrel    1  0  0   0  1  0   0  0  1       0 -1  1   0 -1  0   1 -1  0
                    -1  0  0  -1  0  1  -1  1  0       0  1 -1   1  0 -1   0  0 -1
                    -1  0  0  -1  1  0  -1  0  1       0 -1  1   1 -1  0   0 -1  0
                     1  0  0   0  0  1   0  1  0       0  1 -1   0  0 -1   1  0 -1
                    -1  0  1  -1  1  0  -1  0  0       0 -1  0   1 -1  0   0 -1  1
                     1  0 -1   0  0 -1   0  1 -1       0  1  0   0  0  1   1  0  0
                     1  0 -1   0  1 -1   0  0 -1       0 -1  0   0 -1  1   1 -1  0
                    -1  0  1  -1  0  0  -1  1  0       0  1  0   1  0  0   0  0  1
                     0  0 -1   0  1 -1   1  0 -1       1 -1  0   0 -1  1   0 -1  0
                     0  0  1   1  0  0   0  1  0      -1  1  0  -1  0  0  -1  0  1
                     0  0  1   0  1  0   1  0  0       1 -1  0   0 -1  0   0 -1  1
                     0  0 -1   1  0 -1   0  1 -1      -1  1  0  -1  0  1  -1  0  0
           toldfe1   1.00000000E-06 Hartree
           toldfe2   0.00000000E+00 Hartree
           tolwfr1   0.00000000E+00
           tolwfr2   1.00000000E-10
            typat    1  1
              wtk1     0.09375    0.09375    0.09375    0.18750    0.09375    0.09375
                       0.09375    0.18750    0.03125    0.03125
              wtk2     0.12500    0.50000    0.37500
           xangst    0.0000000000E+00  0.0000000000E+00  0.0000000000E+00
                     1.3516508850E+00  1.3516508850E+00  1.3516508850E+00
            xcart    0.0000000000E+00  0.0000000000E+00  0.0000000000E+00
                     2.5542500000E+00  2.5542500000E+00  2.5542500000E+00
             xred    0.0000000000E+00  0.0000000000E+00  0.0000000000E+00
                     2.5000000000E-01  2.5000000000E-01  2.5000000000E-01
            znucl     14.00000

- Timing analysis has been suppressed with timopt=0

 Suggested references for the acknowledgment of ABINIT usage.

 [1] Ab initio pseudopotentials for electronic structure calculations of poly-atomic systems,
 using density-functional theory.
 M. Fuchs, M. Scheffler, Comput. Phys. Commun. 119, 67 (1999).
 Comment : Some pseudopotential generated using the FHI code were used.

 [2] ABINIT : First-principles approach of materials and nanosystem properties.
 X. Gonze, B. Amadon, P.-M. Anglade, J.-M. Beuken, F. Bottin, P. Boulanger, F. Bruneval,
 D. Caliste, R. Caracas, M. Cote, T. Deutsch, L. Genovese, Ph. Ghosez, M. Giantomassi
 S. Goedecker, D.R. Hamann, P. Hermet, F. Jollet, G. Jomard, S. Leroux, M. Mancini, S. Mazevet,
 M.J.T. Oliveira, G. Onida, Y. Pouillon, T. Rangel, G.-M. Rignanese, D. Sangalli, R. Shaltaf,
 M. Torrent, M.J. Verstraete, G. Zerah, J.W. Zwanziger
 Computer Phys. Comm. 180, 2582-2615 (2009).
 Comment : the third generic paper describing the ABINIT project.
 Note that a version of this paper, that is not formatted for Computer Phys. Comm.
 The licence allows the authors to put it on the Web.

 [3] A brief introduction to the ABINIT software package.
 X. Gonze, G.-M. Rignanese, M. Verstraete, J.-M. Beuken, Y. Pouillon, R. Caracas, F. Jollet,
 M. Torrent, G. Zerah, M. Mikami, Ph. Ghosez, M. Veithen, J.-Y. Raty, V. Olevano, F. Bruneval,
 L. Reining, R. Godby, G. Onida, D.R. Hamann, and D.C. Allan.
 Z. Kristallogr. 220, 558-562 (2005).
 Comment : the second generic paper describing the ABINIT project. Note that this paper
 should be cited especially if you are using the GW part of ABINIT, as several authors
 of this part are not in the list of authors of the first or third paper.
 Note that it should not redistributed (Copyright by Oldenburg Wissenshaftverlag,
 the licence allows the authors to put it on the Web).

 And optionally :

 [4] First-principles computation of material properties : the ABINIT software project.
 X. Gonze, J.-M. Beuken, R. Caracas, F. Detraux, M. Fuchs, G.-M. Rignanese, L. Sindic,
 M. Verstraete, G. Zerah, F. Jollet, M. Torrent, A. Roy, M. Mikami, Ph. Ghosez, J.-Y. Raty, D.C. Allan.
 Comment : the original paper describing the ABINIT project.

 [5] Fast radix 2, 3, 4 and 5 kernels for Fast Fourier Transformations
 on computers with overlapping multiply-add instructions.
 S. Goedecker, SIAM J. on Scientific Computing 18, 1605 (1997).
-

 Calculation completed.
.Delivered   15 WARNINGs and   0 COMMENTs to log file.