     Program PWSCF v.5.0        starts on 14Aug2012 at 23:56: 6

     Current dimensions of program PWSCF are:
     Max number of different atomic species (ntypx) = 10
     Max number of k-points (npk) =  40000
     Max angular momentum in pseudopotentials (lmaxx) =  3
     Reading input from si-001.scf.david.in

     Subspace diagonalization in iterative solution of the eigenvalue problem:
     a serial algorithm will be used

     bravais-lattice index     =            2
     lattice parameter (alat)  =      30.6000  a.u.
     unit-cell volume          =    7163.1540 (a.u.)^3
     number of atoms/cell      =           54
     number of atomic types    =            1
     number of electrons       =       216.00
     number of Kohn-Sham states=          108
     kinetic-energy cutoff     =      18.0000  Ry
     charge density cutoff     =      72.0000  Ry
     convergence threshold     =      1.0E-08
     mixing beta               =       0.7000
     number of iterations used =            8  plain     mixing
     Exchange-correlation      =  SLA  PZ   NOGX NOGC ( 1 1 0 0 0)
     EXX-fraction              =        0.00

     celldm(1)=  30.600000  celldm(2)=   0.000000  celldm(3)=   0.000000
     celldm(4)=   0.000000  celldm(5)=   0.000000  celldm(6)=   0.000000

     crystal axes: (cart. coord. in units of alat)
               a(1) = (  -0.500000   0.000000   0.500000 )
               a(2) = (   0.000000   0.500000   0.500000 )
               a(3) = (  -0.500000   0.500000   0.000000 )

     reciprocal axes: (cart. coord. in units 2 pi/alat)
               b(1) = ( -1.000000 -1.000000  1.000000 )
               b(2) = (  1.000000  1.000000  1.000000 )
               b(3) = ( -1.000000  1.000000 -1.000000 )

     PseudoPot. # 1 for Si read from file:
     /home/ywg/QuantumEspresso/pseudo/Si.pz-vbc.UPF
     MD5 check sum: 6dfa03ddd5817404712e03e4d12deb78
     Pseudo is Norm-conserving, Zval =  4.0
     Generated by new atomic code, or converted to UPF format
     Using radial grid of  431 points,  2 beta functions with:
                l(1) =   0
                l(2) =   1

     atomic species   valence    mass     pseudopotential
        Si             4.00    28.08600     Si( 1.00)

      4 Sym. Ops. (no inversion) found

   Cartesian axes

     site n.     atom                  positions (alat units)
         1           Si  tau(   1) = (   0.0004622   0.0000000   0.0000000  )
         2           Si  tau(   2) = (   0.3333333   0.0000000   0.0000000  )
         3           Si  tau(   3) = (   0.6666667   0.0000000   0.0000000  )
         4           Si  tau(   4) = (   0.0000000   0.3333333   0.0000000  )
         5           Si  tau(   5) = (   0.3333333   0.3333333   0.0000000  )
         6           Si  tau(   6) = (   0.6666667   0.3333333   0.0000000  )
         7           Si  tau(   7) = (   0.0000000   0.6666667   0.0000000  )
         8           Si  tau(   8) = (   0.3333333   0.6666667   1.0000000  )
         9           Si  tau(   9) = (   0.6666667   0.6666667   0.0000000  )
        10           Si  tau(  10) = (   0.0000000   0.0000000   0.3333333  )
        11           Si  tau(  11) = (   0.3333333   0.0000000   0.3333333  )
        12           Si  tau(  12) = (   0.6666667   0.0000000   0.3333333  )
        13           Si  tau(  13) = (   0.0000000   0.3333333   0.3333333  )
        14           Si  tau(  14) = (   0.3333333   0.3333333   0.3333333  )
        15           Si  tau(  15) = (   0.6666667   0.3333333   0.3333333  )
        16           Si  tau(  16) = (   0.0000000   0.6666667   0.3333333  )
        17           Si  tau(  17) = (   0.3333333   0.6666667   0.3333333  )
        18           Si  tau(  18) = (   0.6666667   0.6666667   0.3333333  )
        19           Si  tau(  19) = (   0.0000000   0.0000000   0.6666667  )
        20           Si  tau(  20) = (   0.3333333   1.0000000   0.6666667  )
        21           Si  tau(  21) = (   0.6666667   0.0000000   0.6666667  )
        22           Si  tau(  22) = (   0.0000000   0.3333333   0.6666667  )
        23           Si  tau(  23) = (   0.3333333   0.3333333   0.6666667  )
        24           Si  tau(  24) = (   0.6666667   0.3333333   0.6666667  )
        25           Si  tau(  25) = (   0.0000000   0.6666667   0.6666667  )
        26           Si  tau(  26) = (   0.3333333   0.6666667   0.6666667  )
        27           Si  tau(  27) = (   0.6666667   0.6666667   0.6666667  )
        28           Si  tau(  28) = (   0.0833333   0.0833333   0.0833333  )
        29           Si  tau(  29) = (   0.4166667   0.0833333   0.0833333  )
        30           Si  tau(  30) = (   0.7500000   0.0833333   0.0833333  )
        31           Si  tau(  31) = (   0.0833333   0.4166667   0.0833333  )
        32           Si  tau(  32) = (   0.4166667   0.4166667   0.0833333  )
        33           Si  tau(  33) = (   0.7500000   0.4166667   0.0833333  )
        34           Si  tau(  34) = (   0.0833333   0.7500000   0.0833333  )
        35           Si  tau(  35) = (   0.4166667   0.7500000   0.0833333  )
        36           Si  tau(  36) = (   0.7500000   0.7500000   0.0833333  )
        37           Si  tau(  37) = (   0.0833333   0.0833333   0.4166667  )
        38           Si  tau(  38) = (   0.4166667   0.0833333   0.4166667  )
        39           Si  tau(  39) = (   0.7500000   0.0833333   0.4166667  )
        40           Si  tau(  40) = (   0.0833333   0.4166667   0.4166667  )
        41           Si  tau(  41) = (   0.4166667   0.4166667   0.4166667  )
        42           Si  tau(  42) = (   0.7500000   0.4166667   0.4166667  )
        43           Si  tau(  43) = (   0.0833333   0.7500000   0.4166667  )
        44           Si  tau(  44) = (   0.4166667   0.7500000   0.4166667  )
        45           Si  tau(  45) = (   0.7500000   0.7500000   0.4166667  )
        46           Si  tau(  46) = (   0.0833333   0.0833333   0.7500000  )
        47           Si  tau(  47) = (   0.4166667   0.0833333   0.7500000  )
        48           Si  tau(  48) = (   0.7500000   0.0833333   0.7500000  )
        49           Si  tau(  49) = (   0.0833333   0.4166667   0.7500000  )
        50           Si  tau(  50) = (   0.4166667   0.4166667   0.7500000  )
        51           Si  tau(  51) = (   0.7500000   0.4166667   0.7500000  )
        52           Si  tau(  52) = (   0.0833333   0.7500000   0.7500000  )
        53           Si  tau(  53) = (   0.4166667   0.7500000   0.7500000  )
        54           Si  tau(  54) = (   0.7500000   0.7500000   0.7500000  )

     number of k points=    95
                       cart. coord. in units 2pi/alat
        k(    1) = (   0.0000000   0.0000000   0.0000000), wk =   0.0039062
        k(    2) = (  -0.1250000   0.1250000  -0.1250000), wk =   0.0156250
        k(    3) = (  -0.2500000   0.2500000  -0.2500000), wk =   0.0156250
        k(    4) = (  -0.3750000   0.3750000  -0.3750000), wk =   0.0156250
        k(    5) = (   0.5000000  -0.5000000   0.5000000), wk =   0.0078125
        k(    6) = (   0.0000000   0.2500000   0.0000000), wk =   0.0156250
        k(    7) = (  -0.1250000   0.3750000  -0.1250000), wk =   0.0312500
        k(    8) = (  -0.2500000   0.5000000  -0.2500000), wk =   0.0312500
        k(    9) = (   0.6250000  -0.3750000   0.6250000), wk =   0.0312500
        k(   10) = (   0.5000000  -0.2500000   0.5000000), wk =   0.0312500
        k(   11) = (   0.3750000  -0.1250000   0.3750000), wk =   0.0312500
        k(   12) = (   0.2500000   0.0000000   0.2500000), wk =   0.0312500
        k(   13) = (   0.0000000   0.5000000   0.0000000), wk =   0.0156250
        k(   14) = (  -0.1250000   0.6250000  -0.1250000), wk =   0.0312500
        k(   15) = (   0.7500000  -0.2500000   0.7500000), wk =   0.0312500
        k(   16) = (   0.6250000  -0.1250000   0.6250000), wk =   0.0312500
        k(   17) = (   0.5000000   0.0000000   0.5000000), wk =   0.0312500
        k(   18) = (   0.0000000   0.7500000   0.0000000), wk =   0.0156250
        k(   19) = (   0.8750000  -0.1250000   0.8750000), wk =   0.0312500
        k(   20) = (   0.7500000   0.0000000   0.7500000), wk =   0.0312500
        k(   21) = (   0.0000000  -1.0000000   0.0000000), wk =   0.0078125
        k(   22) = (  -0.2500000   0.5000000   0.0000000), wk =   0.0312500
        k(   23) = (   0.6250000  -0.3750000   0.8750000), wk =   0.0312500
        k(   24) = (   0.5000000  -0.2500000   0.7500000), wk =   0.0156250
        k(   25) = (   0.7500000  -0.2500000   1.0000000), wk =   0.0312500
        k(   26) = (   0.6250000  -0.1250000   0.8750000), wk =   0.0312500
        k(   27) = (   0.5000000   0.0000000   0.7500000), wk =   0.0312500
        k(   28) = (  -0.2500000  -1.0000000   0.0000000), wk =   0.0156250
        k(   29) = (  -0.5000000  -1.0000000   0.0000000), wk =   0.0078125
        k(   30) = (  -0.1250000   0.1250000   0.1250000), wk =   0.0156250
        k(   31) = (  -0.2500000   0.2500000   0.2500000), wk =   0.0156250
        k(   32) = (  -0.3750000   0.3750000   0.3750000), wk =   0.0156250
        k(   33) = (   0.5000000  -0.5000000  -0.5000000), wk =   0.0078125
        k(   34) = (   0.2500000   0.0000000   0.0000000), wk =   0.0078125
        k(   35) = (   0.3750000  -0.1250000   0.1250000), wk =   0.0156250
        k(   36) = (  -0.3750000   0.1250000   0.1250000), wk =   0.0156250
        k(   37) = (  -0.1250000  -0.3750000  -0.1250000), wk =   0.0312500
        k(   38) = (   0.5000000  -0.2500000   0.2500000), wk =   0.0156250
        k(   39) = (  -0.5000000   0.2500000   0.2500000), wk =   0.0156250
        k(   40) = (  -0.2500000  -0.5000000  -0.2500000), wk =   0.0312500
        k(   41) = (  -0.3750000   0.6250000  -0.6250000), wk =   0.0156250
        k(   42) = (   0.3750000  -0.6250000  -0.6250000), wk =   0.0156250
        k(   43) = (   0.6250000   0.3750000   0.6250000), wk =   0.0312500
        k(   44) = (  -0.2500000   0.5000000  -0.5000000), wk =   0.0156250
        k(   45) = (   0.2500000  -0.5000000  -0.5000000), wk =   0.0156250
        k(   46) = (   0.5000000   0.2500000   0.5000000), wk =   0.0312500
        k(   47) = (  -0.1250000   0.3750000  -0.3750000), wk =   0.0156250
        k(   48) = (   0.1250000  -0.3750000  -0.3750000), wk =   0.0156250
        k(   49) = (   0.3750000   0.1250000   0.3750000), wk =   0.0312500
        k(   50) = (   0.0000000   0.2500000  -0.2500000), wk =   0.0078125
        k(   51) = (   0.0000000  -0.2500000  -0.2500000), wk =   0.0078125
        k(   52) = (   0.5000000   0.0000000   0.0000000), wk =   0.0078125
        k(   53) = (   0.6250000  -0.1250000   0.1250000), wk =   0.0156250
        k(   54) = (  -0.6250000   0.1250000   0.1250000), wk =   0.0156250
        k(   55) = (  -0.1250000  -0.6250000  -0.1250000), wk =   0.0312500
        k(   56) = (  -0.2500000   0.7500000  -0.7500000), wk =   0.0156250
        k(   57) = (   0.2500000  -0.7500000  -0.7500000), wk =   0.0156250
        k(   58) = (   0.7500000   0.2500000   0.7500000), wk =   0.0312500
        k(   59) = (  -0.1250000   0.6250000  -0.6250000), wk =   0.0156250
        k(   60) = (   0.1250000  -0.6250000  -0.6250000), wk =   0.0156250
[...]
        k(   81) = (   0.5000000   0.7500000   0.2500000), wk =   0.0156250
        k(   82) = (  -0.2500000   0.7500000  -1.0000000), wk =   0.0312500
        k(   83) = (   1.0000000   0.2500000   0.7500000), wk =   0.0156250
        k(   84) = (  -1.0000000   0.2500000  -0.7500000), wk =   0.0156250
        k(   85) = (  -0.1250000   0.6250000  -0.8750000), wk =   0.0312500
        k(   86) = (   0.1250000  -0.6250000  -0.8750000), wk =   0.0312500
        k(   87) = (   0.8750000   0.1250000   0.6250000), wk =   0.0312500
        k(   88) = (  -0.8750000   0.1250000  -0.6250000), wk =   0.0312500
        k(   89) = (   0.6250000   0.8750000   0.1250000), wk =   0.0312500
        k(   90) = (   0.0000000   0.5000000  -0.7500000), wk =   0.0156250
        k(   91) = (   0.0000000  -0.5000000  -0.7500000), wk =   0.0156250
        k(   92) = (   0.7500000   0.0000000   0.5000000), wk =   0.0312500
        k(   93) = (  -1.0000000  -0.2500000   0.0000000), wk =   0.0156250
        k(   94) = (   0.0000000   1.0000000  -0.2500000), wk =   0.0156250
        k(   95) = (  -1.0000000  -0.5000000   0.0000000), wk =   0.0156250

     Largest allocated arrays     est. size (Mb)     dimensions
     Largest temporary arrays     est. size (Mb)     dimensions

     Initial potential from superposition of free atoms

     starting charge  215.97322, renormalised to  216.00000
     Starting wfc are  216 randomized atomic wfcs

     Self-consistent Calculation

     iteration #  1     ecut=    18.00 Ry     beta=0.70
     Davidson diagonalization with overlap
     ethr =  1.00E-02,  avg # of iterations =  2.0

     Threshold (ethr) on eigenvalues was too large:
     Diagonalizing with lowered threshold

     Davidson diagonalization with overlap
     ethr =  7.75E-04,  avg # of iterations =  1.0

     total energy              =    -427.71184771 Ry
     Harris-Foulkes estimate   =    -428.27744882 Ry
     estimated scf accuracy    <       1.65461033 Ry

[...]

     total energy              =    -427.80810918 Ry
     Harris-Foulkes estimate   =    -427.80810923 Ry
     estimated scf accuracy    <       0.00000014 Ry

     iteration #  9     ecut=    18.00 Ry     beta=0.70
     Davidson diagonalization with overlap
     ethr =  6.62E-11,  avg # of iterations =  2.1

     End of self-consistent calculation

          k = 0.0000 0.0000 0.0000 (  9257 PWs)   bands (ev):

    -5.8107  -4.4129  -4.4111  -4.4107  -4.4106  -4.4104  -4.4103  -4.4099
    -4.4082  -3.8758  -3.8745  -3.8740  -3.8740  -3.8735  -3.8721  -2.4802
    -2.4785  -2.4772  -2.4771  -2.4769  -2.4769  -2.4766  -2.4766  -2.4764
    -2.4764  -2.4751  -2.4733  -0.5501  -0.5488  -0.5471  -0.5470  -0.5470
    -0.5470  -0.5465  -0.5465  -0.5464  -0.5463  -0.5446  -0.5433   0.8533
     0.8536   0.8545   0.8549   0.8550   0.8555   0.8563   0.8566   1.2465
     1.2467   1.2479   1.2479   1.2492   1.2494   1.7092   1.7111   1.7111
     1.7113   1.7114   1.7114   1.7118   1.7118   1.7119   1.7121   1.7121
     1.7140   3.7739   3.7758   3.7762   3.7763   3.7764   3.7764   3.7764
     3.7764   3.7765   3.7766   3.7769   3.7787   4.0890   4.0899   4.0907
     4.0910   4.0910   4.0911   4.0913   4.0914   4.0914   4.0917   4.0925
     4.0934   5.2249   5.2292   5.2298   5.2298   5.2299   5.2301   5.2301
     5.2302   5.2302   5.2303   5.2304   5.2305   5.2306   5.2306   5.2312
     5.2355   6.2524   6.2538   6.2552

          k =-0.1250 0.1250-0.1250 (  9282 PWs)   bands (ev):

[...]

          k = 0.0000 1.0000-0.2500 (  9216 PWs)   bands (ev):

[...]

          k =-1.0000-0.5000 0.0000 (  9224 PWs)   bands (ev):

    -5.2027  -5.2018  -5.2012  -5.2004  -4.2672  -4.2663  -4.2663  -4.2654
    -3.4177  -3.4156  -3.4151  -3.4149  -3.4148  -3.4146  -3.4141  -3.4120
    -3.1748  -3.1739  -3.1734  -3.1724  -2.5268  -2.5263  -2.5257  -2.5252
    -1.5589  -1.5575  -1.5575  -1.5561  -1.4228  -1.4214  -0.6984  -0.6975
    -0.6971  -0.6961  -0.4023  -0.4020  -0.4008  -0.4005   0.1846   0.1855
     0.1865   0.1865   0.1868   0.1868   0.1878   0.1887   1.5526   1.5536
     1.5537   1.5548   2.2844   2.2852   2.3794   2.3797   2.3800   2.3803
     2.9565   2.9582   2.9585   2.9587   2.9587   2.9590   2.9592   2.9609
     3.0101   3.0104   3.0108   3.0110   3.0113   3.0115   3.0119   3.0121
     3.0703   3.0705   3.0707   3.0708   3.5263   3.5273   3.5278   3.5288
     3.6082   3.6085   3.6086   3.6089   4.0691   4.0702   4.0705   4.0707
     4.0708   4.0710   4.0713   4.0723   4.5632   4.5645   4.5650   4.5658
     4.5721   4.5723   4.5726   4.5730   4.9498   4.9506   4.9513   4.9521
     5.5336   5.5354   5.5355   5.5373

!    total energy              =    -427.80810920 Ry
     Harris-Foulkes estimate   =    -427.80810921 Ry
     estimated scf accuracy    <          8.4E-09 Ry

     The total energy is the sum of the following terms:

     one-electron contribution =     129.42874064 Ry
     hartree contribution      =      29.05331872 Ry
     xc contribution           =    -129.99678635 Ry
     ewald contribution        =    -456.29338221 Ry

     convergence has been achieved in   9 iterations

     Forces acting on atoms (Ry/au):

     atom    1 type  1   force =    -0.00390800    0.00000000    0.00000000
     atom    2 type  1   force =     0.00000793    0.00000000    0.00000000
     atom    3 type  1   force =     0.00000776    0.00000000    0.00000000
     atom    4 type  1   force =     0.00001044   -0.00000006   -0.00000027
     atom    5 type  1   force =     0.00005757    0.00006450   -0.00002342
     atom    6 type  1   force =     0.00005801   -0.00006520   -0.00002388
     atom    7 type  1   force =     0.00001044    0.00000006    0.00000027
     atom    8 type  1   force =     0.00005757   -0.00006450    0.00002342
     atom    9 type  1   force =     0.00005801    0.00006520    0.00002388
     atom   10 type  1   force =     0.00001044   -0.00000027   -0.00000006
     atom   11 type  1   force =     0.00005757   -0.00002342    0.00006450
     atom   12 type  1   force =     0.00005801   -0.00002388   -0.00006520
     atom   13 type  1   force =    -0.00015068    0.00002450    0.00002450
     atom   14 type  1   force =     0.00000963   -0.00001229   -0.00001229
     atom   15 type  1   force =     0.00000939    0.00001201    0.00001201
     atom   16 type  1   force =    -0.00015043    0.00002363   -0.00002363
     atom   17 type  1   force =     0.00000963    0.00001215   -0.00001215
     atom   18 type  1   force =     0.00001020   -0.00001217    0.00001217
     atom   19 type  1   force =     0.00001044    0.00000027    0.00000006
     atom   20 type  1   force =     0.00005757    0.00002342   -0.00006450
     atom   21 type  1   force =     0.00005801    0.00002388    0.00006520
     atom   22 type  1   force =    -0.00015043   -0.00002363    0.00002363
     atom   23 type  1   force =     0.00000963   -0.00001215    0.00001215
     atom   24 type  1   force =     0.00001020    0.00001217   -0.00001217
     atom   25 type  1   force =    -0.00015068   -0.00002450   -0.00002450
     atom   26 type  1   force =     0.00000963    0.00001229    0.00001229
     atom   27 type  1   force =     0.00000939   -0.00001201   -0.00001201
     atom   28 type  1   force =     0.00096465    0.00066374    0.00066374
     atom   29 type  1   force =    -0.00000729    0.00000257    0.00000257
     atom   30 type  1   force =    -0.00000225    0.00001210    0.00001210
     atom   31 type  1   force =    -0.00000734    0.00000259   -0.00000259
     atom   32 type  1   force =     0.00095792    0.00064992   -0.00064992
     atom   33 type  1   force =    -0.00000165    0.00001181   -0.00001181
     atom   34 type  1   force =    -0.00001623    0.00001196    0.00001940
     atom   35 type  1   force =    -0.00001581    0.00001191   -0.00001968
     atom   36 type  1   force =     0.00001003    0.00000310    0.00000028
     atom   37 type  1   force =    -0.00000734   -0.00000259    0.00000259
     atom   38 type  1   force =     0.00095792   -0.00064992    0.00064992
     atom   39 type  1   force =    -0.00000165   -0.00001181    0.00001181
     atom   40 type  1   force =     0.00096465   -0.00066374   -0.00066374
     atom   41 type  1   force =    -0.00000729   -0.00000257   -0.00000257
     atom   42 type  1   force =    -0.00000225   -0.00001210   -0.00001210
     atom   43 type  1   force =    -0.00001623   -0.00001196   -0.00001940
     atom   44 type  1   force =    -0.00001581   -0.00001191    0.00001968
     atom   45 type  1   force =     0.00001003   -0.00000310   -0.00000028
     atom   46 type  1   force =    -0.00001623    0.00001940    0.00001196
     atom   47 type  1   force =    -0.00001581   -0.00001968    0.00001191
     atom   48 type  1   force =     0.00001003    0.00000028    0.00000310
     atom   49 type  1   force =    -0.00001623   -0.00001940   -0.00001196
     atom   50 type  1   force =    -0.00001581    0.00001968   -0.00001191
     atom   51 type  1   force =     0.00001003   -0.00000028   -0.00000310
     atom   52 type  1   force =     0.00010241    0.00000000    0.00000000
     atom   53 type  1   force =     0.00010127    0.00000000    0.00000000
     atom   54 type  1   force =    -0.00001096    0.00000000    0.00000000

     Total force =     0.004755     Total SCF correction =     0.000144

     entering subroutine stress ...

          total   stress  (Ry/bohr**3)                   (kbar)     P=  -10.18
  -0.00006919   0.00000000   0.00000000        -10.18      0.00      0.00
   0.00000000  -0.00006918   0.00000075          0.00    -10.18      0.11
   0.00000000   0.00000075  -0.00006918          0.00      0.11    -10.18

     Writing output data file si-001.save

     General routines

     Parallel routines
     EXX routines

   This run was terminated on:   1:56:55  15Aug2012

   JOB DONE.